language Essence 1.3

letting class be function(1 --> 1, 2 --> 5, 3 --> 1, 4 --> 1, 5 --> 3, 6 --> 3, 7 --> 4, 8 --> 2)
letting deck_length be 27
letting deck_width be 50
letting length be function(1 --> 27, 2 --> 24, 3 --> 17, 4 --> 6, 5 --> 11, 6 --> 18, 7 --> 8, 8 --> 24)
letting n_classes be 5
letting n_containers be 8
letting separation be function()
letting width be function(1 --> 13, 2 --> 1, 3 --> 1, 4 --> 1, 5 --> 1, 6 --> 1, 7 --> 3, 8 --> 30)
